WARNING: for repeatability, setting FPU to use double precision
============================[ Problem Statistics ]=============================
|                                                                             |
|  Number of variables:            50                                         |
|  Number of clauses:             218                                         |
|  Parse time:                   0.00 s                                       |
|                                                                             |
============================[ Search Statistics ]==============================
| Conflicts |          ORIGINAL         |          LEARNT          | Progress |
|           |    Vars  Clauses Literals |    Limit  Clauses Lit/Cl |          |
===============================================================================
===============================================================================
restarts              : 1
conflicts             : 5              (3679 /sec)
decisions             : 14             (0.00 % random) (10302 /sec)
propagations          : 134            (98602 /sec)
conflict literals     : 29             (12.12 % deleted)
Memory used           : 20.00 MB
CPU time              : 0.001359 s

SATISFIABLE
